results/res_prop_muc/res_Cimatti_mathsat_cores/QF_UF/SEQ038_size9.smt.smt2.out

real	0m3.470s
user	0m3.173s
sys	0m0.250s
