results/res_prop_muc/res_Cimatti_mathsat_cores/QF_UF/SEQ038_size9.smt.smt2.res
unsat
( _c0
  _c10
  _c100
  _c1003
  _c1004
  _c1006
  _c1008
  _c101
  _c102
  _c103
  _c104
  _c105
  _c106
  _c1064
  _c107
  _c1072
  _c1076
  _c108
  _c1085
  _c1086
  _c1094
  _c1095
  _c1098
  _c1099
  _c11
  _c110
  _c111
  _c112
  _c113
  _c114
  _c1145
  _c1146
  _c1147
  _c1148
  _c1149
  _c115
  _c1150
  _c1151
  _c1152
  _c1153
  _c1155
  _c1156
  _c1158
  _c1159
  _c116
  _c1161
  _c1162
  _c1163
  _c1165
  _c1166
  _c1167
  _c1169
  _c1172
  _c1173
  _c1175
  _c1176
  _c1177
  _c1178
  _c1179
  _c1181
  _c1182
  _c1183
  _c1185
  _c1186
  _c1187
  _c1188
  _c1189
  _c119
  _c1192
  _c1193
  _c1195
  _c1197
  _c120
  _c1200
  _c1201
  _c1202
  _c1206
  _c1209
  _c121
  _c1210
  _c1212
  _c1215
  _c1217
  _c1218
  _c1219
  _c122
  _c1221
  _c1222
  _c1227
  _c1228
  _c123
  _c1230
  _c1232
  _c124
  _c1250
  _c1267
  _c1268
  _c1270
  _c128
  _c129
  _c1290
  _c1292
  _c13
  _c130
  _c131
  _c1310
  _c132
  _c1322
  _c1358
  _c1374
  _c138
  _c139
  _c14
  _c140
  _c1421
  _c1427
  _c1448
  _c1459
  _c146
  _c147
  _c1475
  _c148
  _c1483
  _c1484
  _c1486
  _c1499
  _c15
  _c1509
  _c1517
  _c1519
  _c1527
  _c1538
  _c155
  _c1558
  _c156
  _c157
  _c1574
  _c158
  _c159
  _c16
  _c160
  _c161
  _c162
  _c163
  _c165
  _c166
  _c1664
  _c1671
  _c168
  _c172
  _c1722
  _c1724
  _c173
  _c1734
  _c1747
  _c1754
  _c176
  _c179
  _c18
  _c180
  _c182
  _c185
  _c186
  _c187
  _c188
  _c1886
  _c189
  _c19
  _c1907
  _c191
  _c1918
  _c193
  _c195
  _c196
  _c1964
  _c1965
  _c1966
  _c1967
  _c1968
  _c1969
  _c197
  _c1970
  _c1971
  _c1972
  _c1977
  _c198
  _c1982
  _c1985
  _c1988
  _c199
  _c1991
  _c1994
  _c1995
  _c1996
  _c1997
  _c1998
  _c20
  _c200
  _c2000
  _c2002
  _c2004
  _c2005
  _c2006
  _c2007
  _c2008
  _c2011
  _c2012
  _c2014
  _c2015
  _c2017
  _c2018
  _c202
  _c2020
  _c2021
  _c2022
  _c2024
  _c2025
  _c2026
  _c2029
  _c203
  _c2047
  _c2048
  _c2049
  _c205
  _c2050
  _c2051
  _c2052
  _c206
  _c207
  _c208
  _c21
  _c210
  _c211
  _c212
  _c213
  _c216
  _c217
  _c218
  _c219
  _c2216
  _c2217
  _c2218
  _c2219
  _c2220
  _c2221
  _c2222
  _c2223
  _c2224
  _c223
  _c2230
  _c2231
  _c2232
  _c2233
  _c2234
  _c2235
  _c2236
  _c2237
  _c2238
  _c2239
  _c2240
  _c2241
  _c2242
  _c2243
  _c2244
  _c2245
  _c2246
  _c2247
  _c2248
  _c2249
  _c2250
  _c2251
  _c2252
  _c2253
  _c2254
  _c2255
  _c2256
  _c2257
  _c2258
  _c2259
  _c226
  _c2260
  _c2261
  _c2262
  _c2263
  _c2264
  _c227
  _c229
  _c23
  _c232
  _c235
  _c236
  _c237
  _c238
  _c239
  _c240
  _c241
  _c243
  _c245
  _c246
  _c247
  _c248
  _c249
  _c250
  _c251
  _c252
  _c253
  _c254
  _c26
  _c264
  _c274
  _c281
  _c29
  _c3
  _c30
  _c301
  _c308
  _c31
  _c312
  _c326
  _c335
  _c336
  _c337
  _c338
  _c339
  _c340
  _c341
  _c342
  _c343
  _c344
  _c345
  _c346
  _c347
  _c348
  _c349
  _c350
  _c351
  _c353
  _c354
  _c355
  _c357
  _c362
  _c363
  _c364
  _c365
  _c371
  _c372
  _c373
  _c38
  _c380
  _c381
  _c389
  _c39
  _c4
  _c40
  _c402
  _c403
  _c404
  _c405
  _c406
  _c407
  _c41
  _c410
  _c411
  _c412
  _c413
  _c414
  _c426
  _c429
  _c430
  _c434
  _c435
  _c436
  _c437
  _c438
  _c439
  _c443
  _c444
  _c445
  _c446
  _c450
  _c452
  _c456
  _c457
  _c461
  _c466
  _c47
  _c471
  _c474
  _c475
  _c477
  _c479
  _c480
  _c482
  _c483
  _c484
  _c488
  _c49
  _c496
  _c497
  _c5
  _c50
  _c501
  _c502
  _c517
  _c518
  _c519
  _c520
  _c521
  _c526
  _c527
  _c528
  _c529
  _c530
  _c531
  _c532
  _c535
  _c536
  _c537
  _c538
  _c541
  _c544
  _c545
  _c546
  _c547
  _c553
  _c554
  _c557
  _c56
  _c563
  _c567
  _c57
  _c572
  _c573
  _c577
  _c578
  _c579
  _c58
  _c580
  _c581
  _c582
  _c583
  _c59
  _c590
  _c591
  _c592
  _c593
  _c6
  _c609
  _c610
  _c611
  _c612
  _c613
  _c617
  _c619
  _c620
  _c621
  _c622
  _c626
  _c627
  _c631
  _c634
  _c635
  _c636
  _c638
  _c643
  _c644
  _c646
  _c648
  _c65
  _c653
  _c654
  _c655
  _c659
  _c660
  _c661
  _c662
  _c666
  _c67
  _c670
  _c672
  _c673
  _c674
  _c675
  _c676
  _c68
  _c681
  _c682
  _c683
  _c684
  _c685
  _c697
  _c698
  _c699
  _c7
  _c700
  _c701
  _c702
  _c703
  _c706
  _c708
  _c711
  _c717
  _c719
  _c720
  _c721
  _c727
  _c730
  _c734
  _c735
  _c738
  _c739
  _c74
  _c740
  _c744
  _c745
  _c752
  _c753
  _c754
  _c757
  _c761
  _c763
  _c764
  _c765
  _c766
  _c77
  _c770
  _c771
  _c773
  _c774
  _c775
  _c793
  _c821
  _c826
  _c83
  _c832
  _c833
  _c84
  _c842
  _c847
  _c852
  _c855
  _c865
  _c897
  _c902
  _c903
  _c906
  _c907
  _c909
  _c914
  _c917
  _c922
  _c923
  _c924
  _c926
  _c933
  _c935
  _c936
  _c937
  _c977
  _c983
  _c984
  _c986
  _c987
  _c988 )
